NAME /Users/henri/Research/solvers/instances/idol-instances/robust/collection/cbp_Subramanyam_et_al_2020/CapBud_N20_1/uncertainty_sets/box--1_00__1_00
ROWS
 N  OBJ
COLUMNS
    u_0        OBJ        0
    u_1        OBJ        0
    u_2        OBJ        0
    u_3        OBJ        0
RHS
BOUNDS
 LO BND       u_0        -1
 UP BND       u_0        1
 LO BND       u_1        -1
 UP BND       u_1        1
 LO BND       u_2        -1
 UP BND       u_2        1
 LO BND       u_3        -1
 UP BND       u_3        1
ENDATA
